Cost: 418
0-5-36-47-21-28-2-0
0-12-39-9-25-32-40-0
0-26-0
0-16-49-24-44-3-17-0
0-6-1-42-41-43-33-0
0-7-35-19-8-46-34-0
0-4-27-45-29-48-30-0
Cost: 418
0-17-3-44-24-49-16-0
0-5-36-47-21-28-2-0
0-1-42-41-43-33-6-0
0-30-48-29-45-27-4-0
0-40-32-25-9-39-12-0
0-34-46-8-19-35-7-0
0-26-0
Cost: 418
0-5-36-47-21-28-2-0
0-12-39-9-25-32-40-0
0-26-0
0-16-49-24-44-3-17-0
0-6-1-42-41-43-33-0
0-7-35-19-8-46-34-0
0-4-27-45-29-48-30-0
Cost: 418
0-40-32-25-9-39-12-0
0-30-48-29-45-27-4-0
0-1-42-41-43-33-6-0
0-16-49-24-44-3-17-0
0-26-0
0-34-46-8-19-35-7-0
0-5-36-47-21-28-2-0
Cost: 418
0-33-43-41-42-1-6-0
0-4-27-45-29-48-30-0
0-16-49-24-44-3-17-0
0-5-36-47-21-28-2-0
0-7-35-19-8-46-34-0
0-40-32-25-9-39-12-0
0-26-0
Cost: 418
0-4-27-45-29-48-30-0
0-40-32-25-9-39-12-0
0-26-0
0-17-44-3-24-49-16-0
0-34-46-8-19-35-7-0
0-5-36-47-21-28-2-0
0-6-33-43-41-42-1-0
Cost: 418
0-33-43-41-42-1-6-0
0-4-27-45-29-48-30-0
0-7-35-19-8-46-34-0
0-5-36-47-21-28-2-0
0-40-32-25-9-39-12-0
0-16-49-24-3-44-17-0
0-26-0
Cost: 418
0-33-43-41-42-1-6-0
0-4-27-45-29-48-30-0
0-7-35-19-8-46-34-0
0-5-36-47-21-28-2-0
0-40-32-25-9-39-12-0
0-16-49-24-3-44-17-0
0-26-0
Cost: 418
0-33-43-41-42-1-6-0
0-4-27-45-29-48-30-0
0-7-35-19-8-46-34-0
0-5-36-47-21-28-2-0
0-40-32-25-9-39-12-0
0-16-49-24-3-44-17-0
0-26-0
Cost: 418
0-34-46-8-19-35-7-0
0-30-48-29-45-27-4-0
0-17-3-44-24-49-16-0
0-2-28-21-47-36-5-0
0-40-32-25-9-39-12-0
0-26-0
0-1-42-41-43-33-6-0
Cost: 418
0-4-27-45-29-48-30-0
0-16-49-24-3-44-17-0
0-1-42-41-43-33-6-0
0-7-35-19-8-46-34-0
0-40-32-25-9-39-12-0
0-5-36-47-21-28-2-0
0-26-0
Cost: 418
0-12-39-9-25-32-40-0
0-5-36-47-21-28-2-0
0-26-0
0-33-43-41-42-1-6-0
0-4-27-45-29-48-30-0
0-17-3-44-24-49-16-0
0-34-46-8-19-35-7-0
Cost: 418
0-6-1-42-41-43-33-0
0-34-46-8-19-35-7-0
0-16-49-24-44-3-17-0
0-12-39-9-25-32-40-0
0-2-28-21-47-36-5-0
0-26-0
0-30-48-29-45-27-4-0
Cost: 418
0-34-46-8-19-35-7-0
0-33-43-41-42-1-6-0
0-26-0
0-12-39-9-25-32-40-0
0-17-44-3-24-49-16-0
0-4-27-45-29-48-30-0
0-5-36-47-21-28-2-0
Cost: 418
0-30-48-29-45-27-4-0
0-12-39-9-25-32-40-0
0-26-0
0-16-49-24-3-44-17-0
0-2-28-21-47-36-5-0
0-6-1-42-41-43-33-0
0-7-35-19-8-46-34-0
Cost: 418
0-30-48-29-45-27-4-0
0-12-39-9-25-32-40-0
0-26-0
0-16-49-24-3-44-17-0
0-2-28-21-47-36-5-0
0-6-1-42-41-43-33-0
0-7-35-19-8-46-34-0
Cost: 418
0-7-35-19-8-46-34-0
0-2-28-21-47-36-5-0
0-30-48-29-45-27-4-0
0-12-39-9-25-32-40-0
0-33-43-41-42-1-6-0
0-16-49-24-3-44-17-0
0-26-0
Cost: 418
0-40-32-25-9-39-12-0
0-1-42-41-43-33-6-0
0-34-46-8-19-35-7-0
0-30-48-29-45-27-4-0
0-16-49-24-44-3-17-0
0-26-0
0-2-28-21-47-36-5-0
Cost: 418
0-2-28-21-47-36-5-0
0-26-0
0-30-48-29-45-27-4-0
0-7-35-19-8-46-34-0
0-17-3-44-24-49-16-0
0-6-33-43-41-42-1-0
0-40-32-25-9-39-12-0
Cost: 418
0-2-28-21-47-36-5-0
0-26-0
0-30-48-29-45-27-4-0
0-7-35-19-8-46-34-0
0-17-3-44-24-49-16-0
0-6-33-43-41-42-1-0
0-40-32-25-9-39-12-0
Cost: 418
0-34-46-8-19-35-7-0
0-26-0
0-6-1-42-41-43-33-0
0-30-48-29-45-27-4-0
0-17-3-44-24-49-16-0
0-12-39-9-25-32-40-0
0-2-28-21-47-36-5-0
Cost: 418
0-34-46-8-19-35-7-0
0-26-0
0-6-1-42-41-43-33-0
0-30-48-29-45-27-4-0
0-17-3-44-24-49-16-0
0-12-39-9-25-32-40-0
0-2-28-21-47-36-5-0
Cost: 418
0-2-28-21-47-36-5-0
0-4-27-45-29-48-30-0
0-34-46-8-19-35-7-0
0-26-0
0-16-49-24-44-3-17-0
0-6-33-43-41-42-1-0
0-40-32-25-9-39-12-0
Cost: 418
0-34-46-8-19-35-7-0
0-26-0
0-6-1-42-41-43-33-0
0-30-48-29-45-27-4-0
0-17-3-44-24-49-16-0
0-12-39-9-25-32-40-0
0-2-28-21-47-36-5-0
Cost: 418
0-40-32-25-9-39-12-0
0-1-42-41-43-33-6-0
0-34-46-8-19-35-7-0
0-30-48-29-45-27-4-0
0-16-49-24-44-3-17-0
0-26-0
0-2-28-21-47-36-5-0
Cost: 418
0-1-42-41-43-33-6-0
0-26-0
0-30-48-29-45-27-4-0
0-12-39-9-25-32-40-0
0-17-3-44-24-49-16-0
0-2-28-21-47-36-5-0
0-34-46-8-19-35-7-0
Cost: 418
0-12-39-9-25-32-40-0
0-33-43-41-42-1-6-0
0-4-27-45-29-48-30-0
0-16-49-24-44-3-17-0
0-2-28-21-47-36-5-0
0-26-0
0-7-35-19-8-46-34-0
Cost: 422
0-33-43-41-42-1-6-0
0-30-48-29-45-27-34-0
0-4-0
0-2-28-21-47-36-5-0
0-26-7-35-19-8-46-0
0-16-49-24-3-44-17-0
0-12-39-9-25-32-40-0
Cost: 421
0-17-44-3-24-49-16-0
0-26-0
0-7-35-19-8-46-34-0
0-2-28-21-36-47-30-0
0-12-39-9-25-32-40-0
0-4-48-5-29-45-27-0
0-33-43-41-42-1-6-0
Cost: 418
0-2-28-21-47-36-5-0
0-26-0
0-40-32-25-9-39-12-0
0-30-48-29-45-27-4-0
0-34-46-8-19-35-7-0
0-16-49-24-3-44-17-0
0-33-43-41-42-1-6-0
Cost: 418
0-1-42-41-43-33-6-0
0-4-27-45-29-48-30-0
0-40-32-25-9-39-12-0
0-16-49-24-3-44-17-0
0-26-0
0-5-36-47-21-28-2-0
0-7-35-19-8-46-34-0
